Traveling Salesman Problem/TSP_generados/Aleatorio1621103324_10.tsp
NAME: Aleatorio1621103324_10.tsp
COMMENT: Randomly generated scenario
TYPE: TSP
DIMENSION: 10
EDGE_WEIGHT_TYPE: ATT
NODE_COORD_SECTION
1 16.3 15.07
2 22.84 1.34
3 31.0 6.65
4 47.68 18.94
5 46.18 3.15
6 23.46 26.88
7 27.33 49.87
8 33.34 38.39
9 8.53 38.58
10 35.86 28.41
