Traveling Salesman Problem/TSP_generados/Aleatorio1621103324_10.opt.tour
NAME: Aleatorio1621103324_10.opt.tour
COMMENT: Optimal solution for Aleatorio1621103324_10 (149.4887017008255)
TYPE: TOUR
DIMENSION: 10
TOUR_SECTION
1 6 9 7 8 10 4 5 3 2
-1
EOF
